p cnf 381 1084
c weights 1.0 1.0 2.718281828459045 0.36787944117144233 2.718281828459045 0.36787944117144233 2.718281828459045 0.36787944117144233 2.718281828459045 0.36787944117144233 2.718281828459045 0.36787944117144233 2.718281828459045 0.36787944117144233 1.0 1.0 2.718281828459045 0.36787944117144233 2.718281828459045 0.36787944117144233 2.718281828459045 0.36787944117144233 2.718281828459045 0.36787944117144233 1.0 1.0 2.718281828459045 0.36787944117144233 2.718281828459045 0.36787944117144233 2.718281828459045 0.36787944117144233 2.718281828459045 0.36787944117144233 1.0 1.0 2.718281828459045 0.36787944117144233 2.718281828459045 0.36787944117144233 2.718281828459045 0.36787944117144233 2.718281828459045 0.36787944117144233 2.718281828459045 0.36787944117144233 2.718281828459045 0.36787944117144233 2.718281828459045 0.36787944117144233 2.718281828459045 0.36787944117144233 2.718281828459045 0.36787944117144233 2.718281828459045 0.36787944117144233 1.0 1.0 2.718281828459045 0.36787944117144233 2.718281828459045 0.36787944117144233 2.718281828459045 0.36787944117144233 2.718281828459045 0.36787944117144233 2.718281828459045 0.36787944117144233 2.718281828459045 0.36787944117144233 2.718281828459045 0.36787944117144233 1.0 1.0 2.718281828459045 0.36787944117144233 2.718281828459045 0.36787944117144233 2.718281828459045 0.36787944117144233 2.718281828459045 0.36787944117144233 2.718281828459045 0.36787944117144233 1.0 1.0 2.718281828459045 0.36787944117144233 2.718281828459045 0.36787944117144233 2.718281828459045 0.36787944117144233 2.718281828459045 0.36787944117144233 1.0 1.0 2.718281828459045 0.36787944117144233 2.718281828459045 0.36787944117144233 2.718281828459045 0.36787944117144233 2.718281828459045 0.36787944117144233 1.0 1.0 2.718281828459045 0.36787944117144233 2.718281828459045 0.36787944117144233 2.718281828459045 0.36787944117144233 2.718281828459045 0.36787944117144233 2.718281828459045 0.36787944117144233 2.718281828459045 0.36787944117144233 2.718281828459045 0.36787944117144233 2.718281828459045 0.36787944117144233 1.0 1.0 2.718281828459045 0.36787944117144233 2.718281828459045 0.36787944117144233 2.718281828459045 0.36787944117144233 1.0 1.0 2.718281828459045 0.36787944117144233 2.718281828459045 0.36787944117144233 2.718281828459045 0.36787944117144233 2.718281828459045 0.36787944117144233 2.718281828459045 0.36787944117144233 1.0 1.0 2.718281828459045 0.36787944117144233 2.718281828459045 0.36787944117144233 2.718281828459045 0.36787944117144233 2.718281828459045 0.36787944117144233 2.718281828459045 0.36787944117144233 2.718281828459045 0.36787944117144233 1.0 1.0 2.718281828459045 0.36787944117144233 2.718281828459045 0.36787944117144233 2.718281828459045 0.36787944117144233 2.718281828459045 0.36787944117144233 2.718281828459045 0.36787944117144233 2.718281828459045 0.36787944117144233 2.718281828459045 0.36787944117144233 1.0 1.0 2.718281828459045 0.36787944117144233 2.718281828459045 0.36787944117144233 2.718281828459045 0.36787944117144233 1.0 1.0 2.718281828459045 0.36787944117144233 2.718281828459045 0.36787944117144233 2.718281828459045 0.36787944117144233 1.0 1.0 2.718281828459045 0.36787944117144233 1.0 1.0 2.718281828459045 0.36787944117144233 2.718281828459045 0.36787944117144233 2.718281828459045 0.36787944117144233 2.718281828459045 0.36787944117144233 2.718281828459045 0.36787944117144233 2.718281828459045 0.36787944117144233 1.0 1.0 2.718281828459045 0.36787944117144233 2.718281828459045 0.36787944117144233 2.718281828459045 0.36787944117144233 2.718281828459045 0.36787944117144233 2.718281828459045 0.36787944117144233 1.0 1.0 2.718281828459045 0.36787944117144233 2.718281828459045 0.36787944117144233 1.0 1.0 2.718281828459045 0.36787944117144233 2.718281828459045 0.36787944117144233 2.718281828459045 0.36787944117144233 2.718281828459045 0.36787944117144233 2.718281828459045 0.36787944117144233 1.0 1.0 2.718281828459045 0.36787944117144233 2.718281828459045 0.36787944117144233 2.718281828459045 0.36787944117144233 2.718281828459045 0.36787944117144233 2.718281828459045 0.36787944117144233 2.718281828459045 0.36787944117144233 1.0 1.0 2.718281828459045 0.36787944117144233 2.718281828459045 0.36787944117144233 1.0 1.0 2.718281828459045 0.36787944117144233 2.718281828459045 0.36787944117144233 1.0 1.0 2.718281828459045 0.36787944117144233 2.718281828459045 0.36787944117144233 1.0 1.0 2.718281828459045 0.36787944117144233 2.718281828459045 0.36787944117144233 2.718281828459045 0.36787944117144233 2.718281828459045 0.36787944117144233 2.718281828459045 0.36787944117144233 1.0 1.0 2.718281828459045 0.36787944117144233 2.718281828459045 0.36787944117144233 2.718281828459045 0.36787944117144233 2.718281828459045 0.36787944117144233 2.718281828459045 0.36787944117144233 1.0 1.0 2.718281828459045 0.36787944117144233 2.718281828459045 0.36787944117144233 2.718281828459045 0.36787944117144233 2.718281828459045 0.36787944117144233 2.718281828459045 0.36787944117144233 2.718281828459045 0.36787944117144233 2.718281828459045 0.36787944117144233 2.718281828459045 0.36787944117144233 1.0 1.0 2.718281828459045 0.36787944117144233 1.0 1.0 2.718281828459045 0.36787944117144233 1.0 1.0 2.718281828459045 0.36787944117144233 1.0 1.0 2.718281828459045 0.36787944117144233 2.718281828459045 0.36787944117144233 1.0 1.0 2.718281828459045 0.36787944117144233 2.718281828459045 0.36787944117144233 2.718281828459045 0.36787944117144233 2.718281828459045 0.36787944117144233 2.718281828459045 0.36787944117144233 1.0 1.0 2.718281828459045 0.36787944117144233 2.718281828459045 0.36787944117144233 2.718281828459045 0.36787944117144233 2.718281828459045 0.36787944117144233 2.718281828459045 0.36787944117144233 1.0 1.0 2.718281828459045 0.36787944117144233 2.718281828459045 0.36787944117144233 2.718281828459045 0.36787944117144233 2.718281828459045 0.36787944117144233 1.0 1.0 2.718281828459045 0.36787944117144233 2.718281828459045 0.36787944117144233 2.718281828459045 0.36787944117144233 1.0 1.0 2.718281828459045 0.36787944117144233 1.0 1.0 2.718281828459045 0.36787944117144233 1.0 1.0 2.718281828459045 0.36787944117144233 2.718281828459045 0.36787944117144233 2.718281828459045 0.36787944117144233 2.718281828459045 0.36787944117144233 2.718281828459045 0.36787944117144233 1.0 1.0 2.718281828459045 0.36787944117144233 2.718281828459045 0.36787944117144233 2.718281828459045 0.36787944117144233 2.718281828459045 0.36787944117144233 2.718281828459045 0.36787944117144233 2.718281828459045 0.36787944117144233 2.718281828459045 0.36787944117144233 2.718281828459045 0.36787944117144233 1.0 1.0 2.718281828459045 0.36787944117144233 2.718281828459045 0.36787944117144233 2.718281828459045 0.36787944117144233 2.718281828459045 0.36787944117144233 1.0 1.0 2.718281828459045 0.36787944117144233 2.718281828459045 0.36787944117144233 1.0 1.0 2.718281828459045 0.36787944117144233 1.0 1.0 2.718281828459045 0.36787944117144233 2.718281828459045 0.36787944117144233 2.718281828459045 0.36787944117144233 2.718281828459045 0.36787944117144233 2.718281828459045 0.36787944117144233 2.718281828459045 0.36787944117144233 1.0 1.0 2.718281828459045 0.36787944117144233 2.718281828459045 0.36787944117144233 2.718281828459045 0.36787944117144233 2.718281828459045 0.36787944117144233 2.718281828459045 0.36787944117144233 1.0 1.0 2.718281828459045 0.36787944117144233 2.718281828459045 0.36787944117144233 1.0 1.0 2.718281828459045 0.36787944117144233 2.718281828459045 0.36787944117144233 1.0 1.0 1.0 1.0 2.718281828459045 0.36787944117144233 2.718281828459045 0.36787944117144233 2.718281828459045 0.36787944117144233 2.718281828459045 0.36787944117144233 1.0 1.0 2.718281828459045 0.36787944117144233 2.718281828459045 0.36787944117144233 2.718281828459045 0.36787944117144233 1.0 1.0 2.718281828459045 0.36787944117144233 2.718281828459045 0.36787944117144233 2.718281828459045 0.36787944117144233 2.718281828459045 0.36787944117144233 1.0 1.0 1.0 1.0 2.718281828459045 0.36787944117144233 1.0 1.0 2.718281828459045 0.36787944117144233 2.718281828459045 0.36787944117144233 2.718281828459045 0.36787944117144233 2.718281828459045 0.36787944117144233 2.718281828459045 0.36787944117144233 2.718281828459045 0.36787944117144233 1.0 1.0 2.718281828459045 0.36787944117144233 2.718281828459045 0.36787944117144233 2.718281828459045 0.36787944117144233 2.718281828459045 0.36787944117144233 1.0 1.0 2.718281828459045 0.36787944117144233 1.0 1.0 2.718281828459045 0.36787944117144233 2.718281828459045 0.36787944117144233 2.718281828459045 0.36787944117144233 1.0 1.0 2.718281828459045 0.36787944117144233 2.718281828459045 0.36787944117144233 1.0 1.0 2.718281828459045 0.36787944117144233 2.718281828459045 0.36787944117144233 2.718281828459045 0.36787944117144233 1.0 1.0 1.0 1.0 2.718281828459045 0.36787944117144233 2.718281828459045 0.36787944117144233 1.0 1.0 2.718281828459045 0.36787944117144233 1.0 1.0 1.0 1.0 2.718281828459045 0.36787944117144233 2.718281828459045 0.36787944117144233 1.0 1.0 2.718281828459045 0.36787944117144233 1.0 1.0 2.718281828459045 0.36787944117144233 2.718281828459045 0.36787944117144233 2.718281828459045 0.36787944117144233 1.0 1.0 2.718281828459045 0.36787944117144233 2.718281828459045 0.36787944117144233 2.718281828459045 0.36787944117144233 1.0 1.0 2.718281828459045 0.36787944117144233 2.718281828459045 0.36787944117144233 1.0 1.0 1.0 1.0 2.718281828459045 0.36787944117144233 2.718281828459045 0.36787944117144233 1.0 1.0 2.718281828459045 0.36787944117144233 1.0 1.0 2.718281828459045 0.36787944117144233 1.0 1.0 2.718281828459045 0.36787944117144233 2.718281828459045 0.36787944117144233 1.0 1.0 2.718281828459045 0.36787944117144233 2.718281828459045 0.36787944117144233 2.718281828459045 0.36787944117144233 1.0 1.0 2.718281828459045 0.36787944117144233 1.0 1.0 2.718281828459045 0.36787944117144233 1.0 1.0 2.718281828459045 0.36787944117144233 2.718281828459045 0.36787944117144233 2.718281828459045 0.36787944117144233 1.0 1.0 2.718281828459045 0.36787944117144233 2.718281828459045 0.36787944117144233 1.0 1.0 2.718281828459045 0.36787944117144233 2.718281828459045 0.36787944117144233 1.0 1.0 1.0 1.0 2.718281828459045 0.36787944117144233 2.718281828459045 0.36787944117144233 1.0 1.0 2.718281828459045 0.36787944117144233 2.718281828459045 0.36787944117144233 2.718281828459045 0.36787944117144233 1.0 1.0 1.0 1.0 1.0 1.0 1.0 1.0 2.718281828459045 0.36787944117144233 1.0 1.0 2.718281828459045 0.36787944117144233 1.0 1.0 2.718281828459045 0.36787944117144233 2.718281828459045 0.36787944117144233 1.0 1.0 2.718281828459045 0.36787944117144233 1.0 1.0 2.718281828459045 0.36787944117144233 2.718281828459045 0.36787944117144233 1.0 1.0 1.0 1.0 1.0 1.0 1.0 1.0 1.0 1.0 2.718281828459045 0.36787944117144233 1.0 1.0 2.718281828459045 0.36787944117144233 1.0 1.0 2.718281828459045 0.36787944117144233 2.718281828459045 0.36787944117144233 2.718281828459045 0.36787944117144233 1.0 1.0 1.0 1.0 2.718281828459045 0.36787944117144233 1.0 1.0 2.718281828459045 0.36787944117144233 1.0 1.0 2.718281828459045 0.36787944117144233 1.0 1.0 2.718281828459045 0.36787944117144233 1.0 1.0 1.0 1.0 1.0 1.0 1.0 1.0 1.0 1.0 1.0 1.0 1.0 1.0 1.0 1.0 1.0 1.0
2 1 113 0
2 -1 -113 0
-2 1 -113 0
-2 -1 113 0
3 1 119 0
3 -1 -119 0
-3 1 -119 0
-3 -1 119 0
4 1 171 0
4 -1 -171 0
-4 1 -171 0
-4 -1 171 0
5 1 287 0
5 -1 -287 0
-5 1 -287 0
-5 -1 287 0
6 1 342 0
6 -1 -342 0
-6 1 -342 0
-6 -1 342 0
7 1 355 0
7 -1 -355 0
-7 1 -355 0
-7 -1 355 0
9 8 222 0
9 -8 -222 0
-9 8 -222 0
-9 -8 222 0
10 8 231 0
10 -8 -231 0
-10 8 -231 0
-10 -8 231 0
11 8 252 0
11 -8 -252 0
-11 8 -252 0
-11 -8 252 0
12 8 277 0
12 -8 -277 0
-12 8 -277 0
-12 -8 277 0
14 13 66 0
14 -13 -66 0
-14 13 -66 0
-14 -13 66 0
15 13 158 0
15 -13 -158 0
-15 13 -158 0
-15 -13 158 0
16 13 234 0
16 -13 -234 0
-16 13 -234 0
-16 -13 234 0
17 13 369 0
17 -13 -369 0
-17 13 -369 0
-17 -13 369 0
19 18 53 0
19 -18 -53 0
-19 18 -53 0
-19 -18 53 0
20 18 177 0
20 -18 -177 0
-20 18 -177 0
-20 -18 177 0
21 18 228 0
21 -18 -228 0
-21 18 -228 0
-21 -18 228 0
22 18 323 0
22 -18 -323 0
-22 18 -323 0
-22 -18 323 0
23 18 338 0
23 -18 -338 0
-23 18 -338 0
-23 -18 338 0
24 18 340 0
24 -18 -340 0
-24 18 -340 0
-24 -18 340 0
25 18 347 0
25 -18 -347 0
-25 18 -347 0
-25 -18 347 0
26 18 356 0
26 -18 -356 0
-26 18 -356 0
-26 -18 356 0
27 18 375 0
27 -18 -375 0
-27 18 -375 0
-27 -18 375 0
28 18 377 0
28 -18 -377 0
-28 18 -377 0
-28 -18 377 0
30 29 119 0
30 -29 -119 0
-30 29 -119 0
-30 -29 119 0
31 29 278 0
31 -29 -278 0
-31 29 -278 0
-31 -29 278 0
32 29 289 0
32 -29 -289 0
-32 29 -289 0
-32 -29 289 0
33 29 347 0
33 -29 -347 0
-33 29 -347 0
-33 -29 347 0
34 29 349 0
34 -29 -349 0
-34 29 -349 0
-34 -29 349 0
35 29 364 0
35 -29 -364 0
-35 29 -364 0
-35 -29 364 0
36 29 379 0
36 -29 -379 0
-36 29 -379 0
-36 -29 379 0
38 37 156 0
38 -37 -156 0
-38 37 -156 0
-38 -37 156 0
39 37 240 0
39 -37 -240 0
-39 37 -240 0
-39 -37 240 0
40 37 277 0
40 -37 -277 0
-40 37 -277 0
-40 -37 277 0
41 37 339 0
41 -37 -339 0
-41 37 -339 0
-41 -37 339 0
42 37 365 0
42 -37 -365 0
-42 37 -365 0
-42 -37 365 0
44 43 215 0
44 -43 -215 0
-44 43 -215 0
-44 -43 215 0
45 43 283 0
45 -43 -283 0
-45 43 -283 0
-45 -43 283 0
46 43 323 0
46 -43 -323 0
-46 43 -323 0
-46 -43 323 0
47 43 373 0
47 -43 -373 0
-47 43 -373 0
-47 -43 373 0
49 48 132 0
49 -48 -132 0
-49 48 -132 0
-49 -48 132 0
50 48 160 0
50 -48 -160 0
-50 48 -160 0
-50 -48 160 0
51 48 347 0
51 -48 -347 0
-51 48 -347 0
-51 -48 347 0
52 48 380 0
52 -48 -380 0
-52 48 -380 0
-52 -48 380 0
54 53 72 0
54 -53 -72 0
-54 53 -72 0
-54 -53 72 0
55 53 132 0
55 -53 -132 0
-55 53 -132 0
-55 -53 132 0
56 53 147 0
56 -53 -147 0
-56 53 -147 0
-56 -53 147 0
57 53 188 0
57 -53 -188 0
-57 53 -188 0
-57 -53 188 0
58 53 234 0
58 -53 -234 0
-58 53 -234 0
-58 -53 234 0
59 53 264 0
59 -53 -264 0
-59 53 -264 0
-59 -53 264 0
60 53 308 0
60 -53 -308 0
-60 53 -308 0
-60 -53 308 0
61 53 378 0
61 -53 -378 0
-61 53 -378 0
-61 -53 378 0
63 62 165 0
63 -62 -165 0
-63 62 -165 0
-63 -62 165 0
64 62 304 0
64 -62 -304 0
-64 62 -304 0
-64 -62 304 0
65 62 329 0
65 -62 -329 0
-65 62 -329 0
-65 -62 329 0
67 66 205 0
67 -66 -205 0
-67 66 -205 0
-67 -66 205 0
68 66 287 0
68 -66 -287 0
-68 66 -287 0
-68 -66 287 0
69 66 326 0
69 -66 -326 0
-69 66 -326 0
-69 -66 326 0
70 66 337 0
70 -66 -337 0
-70 66 -337 0
-70 -66 337 0
71 66 339 0
71 -66 -339 0
-71 66 -339 0
-71 -66 339 0
73 72 213 0
73 -72 -213 0
-73 72 -213 0
-73 -72 213 0
74 72 264 0
74 -72 -264 0
-74 72 -264 0
-74 -72 264 0
75 72 278 0
75 -72 -278 0
-75 72 -278 0
-75 -72 278 0
76 72 323 0
76 -72 -323 0
-76 72 -323 0
-76 -72 323 0
77 72 338 0
77 -72 -338 0
-77 72 -338 0
-77 -72 338 0
78 72 352 0
78 -72 -352 0
-78 72 -352 0
-78 -72 352 0
80 79 132 0
80 -79 -132 0
-80 79 -132 0
-80 -79 132 0
81 79 234 0
81 -79 -234 0
-81 79 -234 0
-81 -79 234 0
82 79 235 0
82 -79 -235 0
-82 79 -235 0
-82 -79 235 0
83 79 264 0
83 -79 -264 0
-83 79 -264 0
-83 -79 264 0
84 79 283 0
84 -79 -283 0
-84 79 -283 0
-84 -79 283 0
85 79 306 0
85 -79 -306 0
-85 79 -306 0
-85 -79 306 0
86 79 353 0
86 -79 -353 0
-86 79 -353 0
-86 -79 353 0
88 87 156 0
88 -87 -156 0
-88 87 -156 0
-88 -87 156 0
89 87 188 0
89 -87 -188 0
-89 87 -188 0
-89 -87 188 0
90 87 356 0
90 -87 -356 0
-90 87 -356 0
-90 -87 356 0
92 91 171 0
92 -91 -171 0
-92 91 -171 0
-92 -91 171 0
93 91 205 0
93 -91 -205 0
-93 91 -205 0
-93 -91 205 0
94 91 308 0
94 -91 -308 0
-94 91 -308 0
-94 -91 308 0
96 95 329 0
96 -95 -329 0
-96 95 -329 0
-96 -95 329 0
98 97 104 0
98 -97 -104 0
-98 97 -104 0
-98 -97 104 0
99 97 235 0
99 -97 -235 0
-99 97 -235 0
-99 -97 235 0
100 97 281 0
100 -97 -281 0
-100 97 -281 0
-100 -97 281 0
101 97 289 0
101 -97 -289 0
-101 97 -289 0
-101 -97 289 0
102 97 319 0
102 -97 -319 0
-102 97 -319 0
-102 -97 319 0
103 97 371 0
103 -97 -371 0
-103 97 -371 0
-103 -97 371 0
105 104 205 0
105 -104 -205 0
-105 104 -205 0
-105 -104 205 0
106 104 215 0
106 -104 -215 0
-106 104 -215 0
-106 -104 215 0
107 104 235 0
107 -104 -235 0
-107 104 -235 0
-107 -104 235 0
108 104 306 0
108 -104 -306 0
-108 104 -306 0
-108 -104 306 0
109 104 339 0
109 -104 -339 0
-109 104 -339 0
-109 -104 339 0
111 110 188 0
111 -110 -188 0
-111 110 -188 0
-111 -110 188 0
112 110 333 0
112 -110 -333 0
-112 110 -333 0
-112 -110 333 0
114 113 165 0
114 -113 -165 0
-114 113 -165 0
-114 -113 165 0
115 113 235 0
115 -113 -235 0
-115 113 -235 0
-115 -113 235 0
116 113 293 0
116 -113 -293 0
-116 113 -293 0
-116 -113 293 0
117 113 347 0
117 -113 -347 0
-117 113 -347 0
-117 -113 347 0
118 113 374 0
118 -113 -374 0
-118 113 -374 0
-118 -113 374 0
120 119 222 0
120 -119 -222 0
-120 119 -222 0
-120 -119 222 0
121 119 249 0
121 -119 -249 0
-121 119 -249 0
-121 -119 249 0
122 119 339 0
122 -119 -339 0
-122 119 -339 0
-122 -119 339 0
123 119 353 0
123 -119 -353 0
-123 119 -353 0
-123 -119 353 0
124 119 377 0
124 -119 -377 0
-124 119 -377 0
-124 -119 377 0
125 119 381 0
125 -119 -381 0
-125 119 -381 0
-125 -119 381 0
127 126 190 0
127 -126 -190 0
-127 126 -190 0
-127 -126 190 0
128 126 377 0
128 -126 -377 0
-128 126 -377 0
-128 -126 377 0
130 129 266 0
130 -129 -266 0
-130 129 -266 0
-130 -129 266 0
131 129 344 0
131 -129 -344 0
-131 129 -344 0
-131 -129 344 0
133 132 231 0
133 -132 -231 0
-133 132 -231 0
-133 -132 231 0
134 132 308 0
134 -132 -308 0
-134 132 -308 0
-134 -132 308 0
136 135 177 0
136 -135 -177 0
-136 135 -177 0
-136 -135 177 0
137 135 205 0
137 -135 -205 0
-137 135 -205 0
-137 -135 205 0
138 135 240 0
138 -135 -240 0
-138 135 -240 0
-138 -135 240 0
139 135 342 0
139 -135 -342 0
-139 135 -342 0
-139 -135 342 0
140 135 367 0
140 -135 -367 0
-140 135 -367 0
-140 -135 367 0
142 141 317 0
142 -141 -317 0
-142 141 -317 0
-142 -141 317 0
143 141 323 0
143 -141 -323 0
-143 141 -323 0
-143 -141 323 0
144 141 358 0
144 -141 -358 0
-144 141 -358 0
-144 -141 358 0
145 141 376 0
145 -141 -376 0
-145 141 -376 0
-145 -141 376 0
146 141 381 0
146 -141 -381 0
-146 141 -381 0
-146 -141 381 0
148 147 188 0
148 -147 -188 0
-148 147 -188 0
-148 -147 188 0
149 147 210 0
149 -147 -210 0
-149 147 -210 0
-149 -147 210 0
150 147 264 0
150 -147 -264 0
-150 147 -264 0
-150 -147 264 0
151 147 301 0
151 -147 -301 0
-151 147 -301 0
-151 -147 301 0
152 147 364 0
152 -147 -364 0
-152 147 -364 0
-152 -147 364 0
153 147 376 0
153 -147 -376 0
-153 147 -376 0
-153 -147 376 0
154 147 378 0
154 -147 -378 0
-154 147 -378 0
-154 -147 378 0
155 147 379 0
155 -147 -379 0
-155 147 -379 0
-155 -147 379 0
157 156 365 0
157 -156 -365 0
-157 156 -365 0
-157 -156 365 0
159 158 270 0
159 -158 -270 0
-159 158 -270 0
-159 -158 270 0
161 160 213 0
161 -160 -213 0
-161 160 -213 0
-161 -160 213 0
163 162 375 0
163 -162 -375 0
-163 162 -375 0
-163 -162 375 0
164 162 380 0
164 -162 -380 0
-164 162 -380 0
-164 -162 380 0
166 165 188 0
166 -165 -188 0
-166 165 -188 0
-166 -165 188 0
167 165 249 0
167 -165 -249 0
-167 165 -249 0
-167 -165 249 0
168 165 306 0
168 -165 -306 0
-168 165 -306 0
-168 -165 306 0
169 165 311 0
169 -165 -311 0
-169 165 -311 0
-169 -165 311 0
170 165 352 0
170 -165 -352 0
-170 165 -352 0
-170 -165 352 0
172 171 186 0
172 -171 -186 0
-172 171 -186 0
-172 -171 186 0
173 171 277 0
173 -171 -277 0
-173 171 -277 0
-173 -171 277 0
174 171 287 0
174 -171 -287 0
-174 171 -287 0
-174 -171 287 0
175 171 304 0
175 -171 -304 0
-175 171 -304 0
-175 -171 304 0
176 171 347 0
176 -171 -347 0
-176 171 -347 0
-176 -171 347 0
178 177 283 0
178 -177 -283 0
-178 177 -283 0
-178 -177 283 0
179 177 287 0
179 -177 -287 0
-179 177 -287 0
-179 -177 287 0
180 177 300 0
180 -177 -300 0
-180 177 -300 0
-180 -177 300 0
181 177 333 0
181 -177 -333 0
-181 177 -333 0
-181 -177 333 0
183 182 252 0
183 -182 -252 0
-183 182 -252 0
-183 -182 252 0
184 182 287 0
184 -182 -287 0
-184 182 -287 0
-184 -182 287 0
185 182 377 0
185 -182 -377 0
-185 182 -377 0
-185 -182 377 0
187 186 289 0
187 -186 -289 0
-187 186 -289 0
-187 -186 289 0
189 188 222 0
189 -188 -222 0
-189 188 -222 0
-189 -188 222 0
191 190 228 0
191 -190 -228 0
-191 190 -228 0
-191 -190 228 0
192 190 266 0
192 -190 -266 0
-192 190 -266 0
-192 -190 266 0
193 190 315 0
193 -190 -315 0
-193 190 -315 0
-193 -190 315 0
194 190 326 0
194 -190 -326 0
-194 190 -326 0
-194 -190 326 0
195 190 378 0
195 -190 -378 0
-195 190 -378 0
-195 -190 378 0
197 196 252 0
197 -196 -252 0
-197 196 -252 0
-197 -196 252 0
198 196 306 0
198 -196 -306 0
-198 196 -306 0
-198 -196 306 0
199 196 323 0
199 -196 -323 0
-199 196 -323 0
-199 -196 323 0
200 196 349 0
200 -196 -349 0
-200 196 -349 0
-200 -196 349 0
201 196 356 0
201 -196 -356 0
-201 196 -356 0
-201 -196 356 0
202 196 358 0
202 -196 -358 0
-202 196 -358 0
-202 -196 358 0
203 196 367 0
203 -196 -367 0
-203 196 -367 0
-203 -196 367 0
204 196 378 0
204 -196 -378 0
-204 196 -378 0
-204 -196 378 0
206 205 252 0
206 -205 -252 0
-206 205 -252 0
-206 -205 252 0
207 205 281 0
207 -205 -281 0
-207 205 -281 0
-207 -205 281 0
208 205 301 0
208 -205 -301 0
-208 205 -301 0
-208 -205 301 0
209 205 352 0
209 -205 -352 0
-209 205 -352 0
-209 -205 352 0
211 210 249 0
211 -210 -249 0
-211 210 -249 0
-211 -210 249 0
212 210 374 0
212 -210 -374 0
-212 210 -374 0
-212 -210 374 0
214 213 374 0
214 -213 -374 0
-214 213 -374 0
-214 -213 374 0
216 215 234 0
216 -215 -234 0
-216 215 -234 0
-216 -215 234 0
217 215 240 0
217 -215 -240 0
-217 215 -240 0
-217 -215 240 0
218 215 249 0
218 -215 -249 0
-218 215 -249 0
-218 -215 249 0
219 215 264 0
219 -215 -264 0
-219 215 -264 0
-219 -215 264 0
220 215 326 0
220 -215 -326 0
-220 215 -326 0
-220 -215 326 0
221 215 378 0
221 -215 -378 0
-221 215 -378 0
-221 -215 378 0
223 222 228 0
223 -222 -228 0
-223 222 -228 0
-223 -222 228 0
224 222 297 0
224 -222 -297 0
-224 222 -297 0
-224 -222 297 0
225 222 340 0
225 -222 -340 0
-225 222 -340 0
-225 -222 340 0
226 222 354 0
226 -222 -354 0
-226 222 -354 0
-226 -222 354 0
227 222 379 0
227 -222 -379 0
-227 222 -379 0
-227 -222 379 0
229 228 283 0
229 -228 -283 0
-229 228 -283 0
-229 -228 283 0
230 228 338 0
230 -228 -338 0
-230 228 -338 0
-230 -228 338 0
232 231 277 0
232 -231 -277 0
-232 231 -277 0
-232 -231 277 0
233 231 319 0
233 -231 -319 0
-233 231 -319 0
-233 -231 319 0
236 235 301 0
236 -235 -301 0
-236 235 -301 0
-236 -235 301 0
237 235 306 0
237 -235 -306 0
-237 235 -306 0
-237 -235 306 0
238 235 308 0
238 -235 -308 0
-238 235 -308 0
-238 -235 308 0
239 235 376 0
239 -235 -376 0
-239 235 -376 0
-239 -235 376 0
241 240 289 0
241 -240 -289 0
-241 240 -289 0
-241 -240 289 0
242 240 301 0
242 -240 -301 0
-242 240 -301 0
-242 -240 301 0
243 240 338 0
243 -240 -338 0
-243 240 -338 0
-243 -240 338 0
245 244 266 0
245 -244 -266 0
-245 244 -266 0
-245 -244 266 0
246 244 306 0
246 -244 -306 0
-246 244 -306 0
-246 -244 306 0
247 244 365 0
247 -244 -365 0
-247 244 -365 0
-247 -244 365 0
248 244 376 0
248 -244 -376 0
-248 244 -376 0
-248 -244 376 0
251 250 376 0
251 -250 -376 0
-251 250 -376 0
-251 -250 376 0
253 252 259 0
253 -252 -259 0
-253 252 -259 0
-253 -252 259 0
254 252 277 0
254 -252 -277 0
-254 252 -277 0
-254 -252 277 0
255 252 283 0
255 -252 -283 0
-255 252 -283 0
-255 -252 283 0
256 252 287 0
256 -252 -287 0
-256 252 -287 0
-256 -252 287 0
257 252 329 0
257 -252 -329 0
-257 252 -329 0
-257 -252 329 0
258 252 378 0
258 -252 -378 0
-258 252 -378 0
-258 -252 378 0
260 259 306 0
260 -259 -306 0
-260 259 -306 0
-260 -259 306 0
261 259 308 0
261 -259 -308 0
-261 259 -308 0
-261 -259 308 0
262 259 315 0
262 -259 -315 0
-262 259 -315 0
-262 -259 315 0
263 259 364 0
263 -259 -364 0
-263 259 -364 0
-263 -259 364 0
265 264 378 0
265 -264 -378 0
-265 264 -378 0
-265 -264 378 0
267 266 337 0
267 -266 -337 0
-267 266 -337 0
-267 -266 337 0
268 266 367 0
268 -266 -367 0
-268 266 -367 0
-268 -266 367 0
269 266 376 0
269 -266 -376 0
-269 266 -376 0
-269 -266 376 0
271 270 300 0
271 -270 -300 0
-271 270 -300 0
-271 -270 300 0
272 270 360 0
272 -270 -360 0
-272 270 -360 0
-272 -270 360 0
274 273 301 0
274 -273 -301 0
-274 273 -301 0
-274 -273 301 0
275 273 308 0
275 -273 -308 0
-275 273 -308 0
-275 -273 308 0
276 273 354 0
276 -273 -354 0
-276 273 -354 0
-276 -273 354 0
279 278 354 0
279 -278 -354 0
-279 278 -354 0
-279 -278 354 0
280 278 377 0
280 -278 -377 0
-280 278 -377 0
-280 -278 377 0
282 281 293 0
282 -281 -293 0
-282 281 -293 0
-282 -281 293 0
285 284 289 0
285 -284 -289 0
-285 284 -289 0
-285 -284 289 0
286 284 352 0
286 -284 -352 0
-286 284 -352 0
-286 -284 352 0
288 287 338 0
288 -287 -338 0
-288 287 -338 0
-288 -287 338 0
290 289 306 0
290 -289 -306 0
-290 289 -306 0
-290 -289 306 0
291 289 323 0
291 -289 -323 0
-291 289 -323 0
-291 -289 323 0
292 289 353 0
292 -289 -353 0
-292 289 -353 0
-292 -289 353 0
294 293 340 0
294 -293 -340 0
-294 293 -340 0
-294 -293 340 0
295 293 367 0
295 -293 -367 0
-295 293 -367 0
-295 -293 367 0
296 293 377 0
296 -293 -377 0
-296 293 -377 0
-296 -293 377 0
298 297 315 0
298 -297 -315 0
-298 297 -315 0
-298 -297 315 0
299 297 353 0
299 -297 -353 0
-299 297 -353 0
-299 -297 353 0
302 301 329 0
302 -301 -329 0
-302 301 -329 0
-302 -301 329 0
303 301 376 0
303 -301 -376 0
-303 301 -376 0
-303 -301 376 0
305 304 308 0
305 -304 -308 0
-305 304 -308 0
-305 -304 308 0
307 306 330 0
307 -306 -330 0
-307 306 -330 0
-307 -306 330 0
309 308 330 0
309 -308 -330 0
-309 308 -330 0
-309 -308 330 0
310 308 349 0
310 -308 -349 0
-310 308 -349 0
-310 -308 349 0
312 311 338 0
312 -311 -338 0
-312 311 -338 0
-312 -311 338 0
313 311 356 0
313 -311 -356 0
-313 311 -356 0
-313 -311 356 0
314 311 374 0
314 -311 -374 0
-314 311 -374 0
-314 -311 374 0
316 315 319 0
316 -315 -319 0
-316 315 -319 0
-316 -315 319 0
318 317 355 0
318 -317 -355 0
-318 317 -355 0
-318 -317 355 0
320 319 326 0
320 -319 -326 0
-320 319 -326 0
-320 -319 326 0
321 319 358 0
321 -319 -358 0
-321 319 -358 0
-321 -319 358 0
322 319 377 0
322 -319 -377 0
-322 319 -377 0
-322 -319 377 0
324 323 349 0
324 -323 -349 0
-324 323 -349 0
-324 -323 349 0
325 323 375 0
325 -323 -375 0
-325 323 -375 0
-325 -323 375 0
327 326 365 0
327 -326 -365 0
-327 326 -365 0
-327 -326 365 0
328 326 381 0
328 -326 -381 0
-328 326 -381 0
-328 -326 381 0
331 330 353 0
331 -330 -353 0
-331 330 -353 0
-331 -330 353 0
332 330 371 0
332 -330 -371 0
-332 330 -371 0
-332 -330 371 0
334 333 358 0
334 -333 -358 0
-334 333 -358 0
-334 -333 358 0
335 333 364 0
335 -333 -364 0
-335 333 -364 0
-335 -333 364 0
336 333 376 0
336 -333 -376 0
-336 333 -376 0
-336 -333 376 0
341 340 373 0
341 -340 -373 0
-341 340 -373 0
-341 -340 373 0
343 342 380 0
343 -342 -380 0
-343 342 -380 0
-343 -342 380 0
345 344 358 0
345 -344 -358 0
-345 344 -358 0
-345 -344 358 0
346 344 377 0
346 -344 -377 0
-346 344 -377 0
-346 -344 377 0
348 347 381 0
348 -347 -381 0
-348 347 -381 0
-348 -347 381 0
350 349 369 0
350 -349 -369 0
-350 349 -369 0
-350 -349 369 0
351 349 380 0
351 -349 -380 0
-351 349 -380 0
-351 -349 380 0
357 356 373 0
357 -356 -373 0
-357 356 -373 0
-357 -356 373 0
359 358 379 0
359 -358 -379 0
-359 358 -379 0
-359 -358 379 0
361 360 369 0
361 -360 -369 0
-361 360 -369 0
-361 -360 369 0
362 360 375 0
362 -360 -375 0
-362 360 -375 0
-362 -360 375 0
363 360 380 0
363 -360 -380 0
-363 360 -380 0
-363 -360 380 0
366 365 373 0
366 -365 -373 0
-366 365 -373 0
-366 -365 373 0
368 367 376 0
368 -367 -376 0
-368 367 -376 0
-368 -367 376 0
370 369 380 0
370 -369 -380 0
-370 369 -380 0
-370 -369 380 0
372 371 376 0
372 -371 -376 0
-372 371 -376 0
-372 -371 376 0
